NAME: myKro4
TYPE: TSP
COMMENT: 11-city problem 
DIMENSION: 11
EDGE_WEIGHT_TYPE: EUC_2D
NODE_COORD_SECTION
1 60 200
2 180 200
3 80 180
4 140 180
5 20 160
6 100 160
7 200 160
8 140 140
9 140 120
10 180 100
11 60 80
EOF
